<instance format="XCSP3" type="CSP">
  <variables>
    <var id="x0"> 2 8 13 14 </var>
    <var id="x1"> 8 10 14 17 </var>
    <var id="x2"> 2 10 13 </var>
    <var id="x3"> 7 10 13 </var>
    <var id="x4"> 7 8 10 </var>
    <var id="x5"> 2 7 10 13 </var>
    <var id="x6"> 10 14 17 </var>
    <var id="x7"> 2 3 10 13 </var>
    <var id="x8"> 0 3 8 10 </var>
    <var id="x9"> 0 3 8 10 16 </var>
    <var id="x10"> 3 11 16 </var>
    <var id="x11"> 2 8 10 11 </var>
    <var id="x12"> 3 13 </var>
    <var id="x13"> 2 8 11 16 </var>
    <var id="x14"> 10 11 16 </var>
    <var id="x15"> 3 5 11 17 </var>
    <var id="x16"> 3 5 9 11 </var>
    <var id="x17"> 3 4 11 </var>
    <var id="x18"> 3 8 15 </var>
    <var id="x19"> 8 9 11 17 </var>
    <var id="x20"> 3..5 11 </var>
    <var id="x21"> 4 5 11 17 </var>
    <var id="x22"> 3 4 11 15 </var>
    <var id="x23"> 0 6 16 </var>
    <var id="x24"> 2 4 10 13 </var>
    <var id="x25"> 2 13 16 17 </var>
    <var id="x26"> 4 6 10 13 </var>
    <var id="x27"> 0 10 16 </var>
    <var id="x28"> 10 13 16 17 </var>
    <var id="x29"> 2 4 10 </var>
    <var id="x30"> 2 4 16 17 </var>
    <var id="x31"> 0 7 11 14 </var>
    <var id="x32"> 11 12 </var>
    <var id="x33"> 0 4 10 14 15 </var>
    <var id="x34"> 4 7 10 11 </var>
    <var id="x35"> 4 7 10..12 15 </var>
    <var id="x36"> 12 14 </var>
    <var id="x37"> 4 10..12 14 </var>
    <var id="x38"> 4 11 12 14 15 </var>
    <var id="x39"> 3 7 16 </var>
    <var id="x40"> 2 9 13 </var>
    <var id="x41"> 1 2 </var>
    <var id="x42"> 2 3 5 13 16 </var>
    <var id="x43"> 2 3 5 9 13 </var>
    <var id="x44"> 3 5 16 </var>
    <var id="x45"> 1 3 5 9 13 </var>
    <var id="x46"> 1 2 16 </var>
    <var id="x47"> 4 9 10 13 </var>
    <var id="x48"> 4 10 14 </var>
    <var id="x49"> 7 9 10 13 </var>
    <var id="x50"> 4 7 10 12 </var>
    <var id="x51"> 6 9 12..14 </var>
    <var id="x52"> 4 6 7 12 14 </var>
    <var id="x53"> 4 12 </var>
    <var id="x54"> 4 10 12 14 </var>
    <var id="x55"> 3 11 14 </var>
    <var id="x56"> 10 15 </var>
    <var id="x57"> 3 9 10 </var>
    <var id="x58"> 3 9..11 </var>
    <var id="x59"> 10 11 </var>
    <var id="x60"> 3 12 14 </var>
    <var id="x61"> 3 11 12 14 15 </var>
    <var id="x62"> 0..2 15 </var>
    <var id="x63"> 2 3 5 11 13 </var>
    <var id="x64"> 11 13 </var>
    <var id="x65"> 3 5 11 </var>
    <var id="x66"> 1 2 5 11 13 </var>
    <var id="x67"> 1 3 5 13 </var>
    <var id="x68"> 1 2 11 </var>
    <var id="x69"> 2 3 11 15 </var>
    <var id="x70"> 0 3 8 </var>
    <var id="x71"> 0 2 4 8 </var>
    <var id="x72"> 0 2 3 10 </var>
    <var id="x73"> 3 4 10 </var>
    <var id="x74"> 1 2 10 </var>
    <var id="x75"> 1 2 4 8 12 </var>
    <var id="x76"> 4 10 12 </var>
    <var id="x77"> 2..4 12 </var>
    <var id="x78"> 4 6 </var>
    <var id="x79"> 1 6 17 </var>
    <var id="x80"> 3 5 11 17 </var>
    <var id="x81"> 3 4 6 7 11 </var>
    <var id="x82"> 1 3 7 </var>
    <var id="x83"> 7 11 17 </var>
    <var id="x84"> 1 5..7 11 </var>
    <var id="x85"> 3 4 6 7 </var>
    <var id="x86"> 0 7 14 16 </var>
    <var id="x87"> 0 2 9 </var>
    <var id="x88"> 0 7 16 </var>
    <var id="x89"> 12 14 16 </var>
    <var id="x90"> 2 7 12 </var>
    <var id="x91"> 9 12 14 </var>
    <var id="x92"> 0 2 7 12 14 </var>
    <var id="x93"> 12 14 16 17 </var>
    <var id="x94"> 4 6 8 14 </var>
    <var id="x95"> 1 6 8 </var>
    <var id="x96"> 1 3 4 </var>
    <var id="x97"> 3 4 8 14 </var>
    <var id="x98"> 3 4 6 11 </var>
    <var id="x99"> 4 8 11 12 </var>
    <var id="x100"> 1 4 8 11 12 </var>
    <var id="x101"> 3 4 11 12 14 </var>
    <var id="x102"> 2 4 8 13 </var>
    <var id="x103"> 1..4 10 13 </var>
    <var id="x104"> 3 4 8 10 </var>
    <var id="x105"> 1 3 8 10 </var>
    <var id="x106"> 8 10 11 13 </var>
    <var id="x107"> 3 4 11 </var>
    <var id="x108"> 1 2 10 11 13 </var>
    <var id="x109"> 2..4 </var>
    <var id="x110"> 6 11 14 16 </var>
    <var id="x111"> 2 4 6 14 </var>
    <var id="x112"> 2 6 10 </var>
    <var id="x113"> 10 11 16 </var>
    <var id="x114"> 4 11 14 16 </var>
    <var id="x115"> 2 4 6 14 </var>
    <var id="x116"> 2 4 11 14 16 </var>
    <var id="x117"> 0 3 6 11 16 </var>
    <var id="x118"> 0 2 6 17 </var>
    <var id="x119"> 0 2 3 11 </var>
    <var id="x120"> 0 3 16 </var>
    <var id="x121"> 2 6 11 </var>
    <var id="x122"> 2 4 11 </var>
    <var id="x123"> 0 2..4 6 </var>
    <var id="x124"> 2..4 11 16 </var>
    <var id="x125"> 10 </var>
    <var id="x126"> 5 11 12 16 </var>
    <var id="x127"> 8 10 14 15 </var>
    <var id="x128"> 8 10..12 15 </var>
    <var id="x129"> 5 12 14 </var>
    <var id="x130"> 12 14 </var>
    <var id="x131"> 8 11 12 16 </var>
    <var id="x132"> 5 10..12 14 16 </var>
    <var id="x133"> 6 8 13 </var>
    <var id="x134"> 6 8 </var>
    <var id="x135"> 3 5 12 13 16 </var>
    <var id="x136"> 3 8 </var>
    <var id="x137"> 3 5 13 </var>
    <var id="x138"> 7 8 13 16 </var>
    <var id="x139"> 5..7 13 </var>
    <var id="x140"> 3 5 6 12 13 </var>
  </variables>
  <constraints>
    <group>
      <allDifferent> %... </allDifferent>
      <args> x0 x1 x2 x3 x4 x5 x6 </args>
      <args> x7 x8 x9 x10 x11 x12 x13 x14 </args>
      <args> x15 x16 x17 x18 x19 x20 x21 x22 </args>
      <args> x23 x24 x25 x26 x27 x28 x29 x30 </args>
      <args> x31 x32 x33 x34 x35 x36 x37 x38 </args>
      <args> x39 x40 x41 x42 x43 x44 x45 x46 </args>
      <args> x47 x48 x49 x50 x51 x52 x53 x54 </args>
      <args> x55 x56 x57 x58 x59 x60 x61 </args>
      <args> x62 x63 x64 x65 x66 x67 x68 x69 </args>
      <args> x70 x71 x72 x73 x74 x75 x76 x77 </args>
      <args> x78 x79 x80 x81 x82 x83 x84 x85 </args>
      <args> x86 x87 x88 x89 x90 x91 x92 x93 </args>
      <args> x94 x95 x96 x97 x98 x99 x100 x101 </args>
      <args> x102 x103 x104 x105 x106 x107 x108 x109 </args>
      <args> x110 x111 x112 x113 x114 x115 x116 </args>
      <args> x117 x118 x119 x120 x121 x122 x123 x124 </args>
      <args> x125 x126 x127 x128 x129 x130 x131 x132 </args>
      <args> x133 x134 x135 x136 x137 x138 x139 x140 </args>
      <args> x23 x31 x39 x55 x70 x86 x110 x117 </args>
      <args> x0 x40 x71 x78 x94 x102 x111 x133 </args>
      <args> x41 x56 x62 x79 x95 x112 x118 x134 </args>
      <args> x7 x24 x47 x57 x96 x103 x125 </args>
      <args> x15 x25 x32 x42 x63 x80 x126 x135 </args>
      <args> x1 x8 x33 x48 x97 x104 x127 x136 </args>
      <args> x2 x16 x43 x58 x72 x87 x119 x137 </args>
      <args> x3 x17 x26 x34 x73 x81 x98 </args>
      <args> x4 x9 x18 x27 x82 x88 x105 x120 </args>
      <args> x19 x28 x49 x64 x83 x106 x113 x138 </args>
      <args> x10 x20 x44 x65 x89 x107 x114 </args>
      <args> x5 x59 x66 x74 x84 x108 x121 x139 </args>
      <args> x11 x29 x35 x50 x90 x99 x122 x128 </args>
      <args> x12 x36 x45 x51 x67 x91 x129 x140 </args>
      <args> x52 x60 x85 x92 x109 x115 x123 x130 </args>
      <args> x13 x30 x46 x53 x68 x75 x100 x131 </args>
      <args> x6 x14 x21 x37 x54 x76 x93 x132 </args>
      <args> x22 x38 x61 x69 x77 x101 x116 x124 </args>
    </group>
  </constraints>
</instance>

